words_hard_train/4760.qaiger
aag 83 16 0 1 67
2
4
8
10
16
20
28
36
50
68
76
104
106
120
126
144
166
6 3 5
12 9 11
14 6 12
18 14 17
22 19 20
24 18 21
26 23 25
30 26 29
32 27 28
34 31 33
38 36 21
40 37 20
42 39 41
44 35 42
46 34 8
48 45 47
52 50 10
54 51 11
56 53 55
58 15 16
60 59 19
62 57 61
64 56 60
66 63 65
70 68 5
72 69 4
74 71 73
78 76 5
80 77 4
82 79 81
84 12 2
86 82 85
88 75 87
90 75 82
92 13 3
94 91 93
96 89 95
98 94 87
100 97 99
102 67 100
108 104 107
110 105 106
112 109 111
114 112 24
116 113 25
118 115 117
122 118 121
124 102 123
128 127 16
130 126 17
132 129 131
134 8 10
136 135 13
138 133 136
140 132 137
142 139 141
146 106 145
148 107 144
150 147 149
152 151 120
154 43 9
156 153 155
158 143 156
160 119 150
162 158 161
164 124 162
166 48 164
i0 2 y2[3]
i1 2 y2[4]
i2 2 y2[1]
i3 2 y2[2]
i4 2 y2[5]
i5 2 y2[6]
i6 1 x1[6]
i7 1 x1[1]
i8 1 x1[5]
i9 1 x1[3]
i10 1 x1[4]
i11 1 x1[7]
i12 2 y2[7]
i13 2 y2[0]
i14 1 x1[2]
i15 1 x1[0]
o0 bool[0]
c
simplified
  ==
    subtract
      1
      2 y2
    xor
      1 x1
      reverse
        2 y2
