words_hard_train/4760.qaiger.qdimacs
p cnf 83 202
a 34 38 72 14 18 52 25 63 0
e 1 2 3 4 5 6 7 8 9 10 11 12 13 15 16 17 19 20 21 22 23 24 26 27 28 29 30 31 32 33 35 36 37 39 40 41 42 43 44 45 46 47 48 49 50 51 53 54 55 56 57 58 59 60 61 62 64 65 66 67 68 69 70 71 73 74 75 76 77 78 79 80 81 82 83 0
1 2 3 0
-1 -3 0
-2 -3 0
4 5 6 0
-4 -6 0
-5 -6 0
-3 -6 7 0
3 -7 0
6 -7 0
-7 8 9 0
7 -9 0
-8 -9 0
9 -10 11 0
-9 -11 0
10 -11 0
-9 10 12 0
9 -12 0
-10 -12 0
11 12 13 0
-11 -13 0
-12 -13 0
-13 14 15 0
13 -15 0
-14 -15 0
13 -14 16 0
-13 -16 0
14 -16 0
15 16 17 0
-15 -17 0
-16 -17 0
-18 10 19 0
18 -19 0
-10 -19 0
18 -10 20 0
-18 -20 0
10 -20 0
19 20 21 0
-19 -21 0
-20 -21 0
17 -21 22 0
-17 -22 0
21 -22 0
-17 -4 23 0
17 -23 0
4 -23 0
22 23 24 0
-22 -24 0
-23 -24 0
-25 -5 26 0
25 -26 0
5 -26 0
25 5 27 0
-25 -27 0
-5 -27 0
26 27 28 0
-26 -28 0
-27 -28 0
7 -8 29 0
-7 -29 0
8 -29 0
29 9 30 0
-29 -30 0
-9 -30 0
28 30 31 0
-28 -31 0
-30 -31 0
-28 -30 32 0
28 -32 0
30 -32 0
31 32 33 0
-31 -33 0
-32 -33 0
-34 2 35 0
34 -35 0
-2 -35 0
34 -2 36 0
-34 -36 0
2 -36 0
35 36 37 0
-35 -37 0
-36 -37 0
-38 2 39 0
38 -39 0
-2 -39 0
38 -2 40 0
-38 -40 0
2 -40 0
39 40 41 0
-39 -41 0
-40 -41 0
-6 -1 42 0
6 -42 0
1 -42 0
-41 42 43 0
41 -43 0
-42 -43 0
37 43 44 0
-37 -44 0
-43 -44 0
37 -41 45 0
-37 -45 0
41 -45 0
6 1 46 0
-6 -46 0
-1 -46 0
45 46 47 0
-45 -47 0
-46 -47 0
44 47 48 0
-44 -48 0
-47 -48 0
-47 43 49 0
47 -49 0
-43 -49 0
48 49 50 0
-48 -50 0
-49 -50 0
33 -50 51 0
-33 -51 0
50 -51 0
-52 53 54 0
52 -54 0
-53 -54 0
52 -53 55 0
-52 -55 0
53 -55 0
54 55 56 0
-54 -56 0
-55 -56 0
-56 -12 57 0
56 -57 0
12 -57 0
56 12 58 0
-56 -58 0
-12 -58 0
57 58 59 0
-57 -59 0
-58 -59 0
-59 60 61 0
59 -61 0
-60 -61 0
-51 61 62 0
51 -62 0
-61 -62 0
63 -8 64 0
-63 -64 0
8 -64 0
-63 8 65 0
63 -65 0
-8 -65 0
64 65 66 0
-64 -66 0
-65 -66 0
-4 -5 67 0
4 -67 0
5 -67 0
67 6 68 0
-67 -68 0
-6 -68 0
66 -68 69 0
-66 -69 0
68 -69 0
-66 68 70 0
66 -70 0
-68 -70 0
69 70 71 0
-69 -71 0
-70 -71 0
-53 72 73 0
53 -73 0
-72 -73 0
53 -72 74 0
-53 -74 0
72 -74 0
73 74 75 0
-73 -75 0
-74 -75 0
75 -60 76 0
-75 -76 0
60 -76 0
21 4 77 0
-21 -77 0
-4 -77 0
76 77 78 0
-76 -78 0
-77 -78 0
71 -78 79 0
-71 -79 0
78 -79 0
59 -75 80 0
-59 -80 0
75 -80 0
-79 80 81 0
79 -81 0
-80 -81 0
-62 -81 82 0
62 -82 0
81 -82 0
-24 -82 83 0
24 -83 0
82 -83 0
83 0
